Problem:    Cereali
Rows:       4
Columns:    12
Non-zeros:  36
Status:     OPTIMAL
Objective:  profitto = 226976.7442 (MAXimum)

   No.   Row name   St   Activity     Lower bound   Upper bound    Marginal
------ ------------ -- ------------- ------------- ------------- -------------
     1 areaDisponibile[1]
                    B              0                         200 
     2 areaDisponibile[2]
                    B        111.628                         400 
     3 acquaDisponibile
                    NU        400000                      400000      0.567442 
     4 profitto     B         226977                             

   No. Column name  St   Activity     Lower bound   Upper bound    Marginal
------ ------------ -- ------------- ------------- ------------- -------------
     1 x[1,1]       NL             0             0                     -20.093 
     2 x[1,2]       NL             0             0                    -28.7907 
     3 x[1,3]       NL             0             0                    -28.7442 
     4 x[1,4]       NL             0             0                    -43.4419 
     5 x[1,5]       NL             0             0                       < eps
     6 x[1,6]       NL             0             0                    -8.13953 
     7 x[2,1]       NL             0             0                     -20.093 
     8 x[2,2]       NL             0             0                    -28.7907 
     9 x[2,3]       NL             0             0                    -28.7442 
    10 x[2,4]       NL             0             0                    -43.4419 
    11 x[2,5]       B        1860.47             0               
    12 x[2,6]       NL             0             0                    -8.13953 

Karush-Kuhn-Tucker optimality conditions:

KKT.PE: max.abs.err = 0.00e+000 on row 0
        max.rel.err = 0.00e+000 on row 0
        High quality

KKT.PB: max.abs.err = 0.00e+000 on row 0
        max.rel.err = 0.00e+000 on row 0
        High quality

KKT.DE: max.abs.err = 1.42e-014 on column 11
        max.rel.err = 5.80e-017 on column 11
        High quality

KKT.DB: max.abs.err = 0.00e+000 on row 0
        max.rel.err = 0.00e+000 on row 0
        High quality

End of output
